# o-Benzyne preliminary computations

memory 14 gb

molecule {
  0 1
  C   -1.3709347749   -0.0245297902   -0.0024477768
  O    1.3018517029    0.1205546504   -0.0018368775
  H   -2.0719912104    1.9029228138    0.0064875079
  H   -2.1075991258   -0.9695784691    1.6760135849
  H   -2.0992930964   -0.9817387505   -1.6768241231
  H    1.9411022646   -1.5727689144   -0.0014853054
  units bohr
}

set {
  basis=cc-pVTZ
  reference rhf
  e_convergence 10 
  d_convergence 10
  r_convergence 8
  maxiter 300
}

energy('ccsd(t)')
