# o-Benzyne preliminary computations

memory 14 gb

molecule {
  0 1
  units bohr
 C   -1.3729734117   -0.0245396759    0.0000011692
 O    1.3075586257    0.1204072928   -0.0000000955
 H   -2.0798654770    1.9079654395   -0.0000824692
 H   -2.1104605570   -0.9779779199    1.6814259224
 H   -2.1104578133   -0.9781040837   -1.6813536236
 H    1.9424744733   -1.5778831728    0.0000006866
}

set {
  basis cc-pvtz
  reference rhf
  e_convergence 10 
  d_convergence 10
  r_convergence 8
  maxiter 300
  freeze_core True
}

e, wfn = energy('ccsd(t)', return_wfn = True)
psi4.print_out('Giraffe The Energy is %.12f \n'%(e))
