# o-Benzyne preliminary computations

memory 14 gb

molecule {
  0 1
  C   -1.3696229893   -0.0263594062    0.0000040148
  O    1.3038127929    0.1141703126    0.0000032036
  H   -2.0681174836    1.9023596683   -0.0009190550
  H   -2.1034682763   -0.9756988414    1.6768337883
  H   -2.1033891842   -0.9772109612   -1.6760030937
  H    1.9339209004   -1.5623992321   -0.0000118480
  units bohr
}

set {
  basis=cc-pVTZ
  reference rhf
  e_convergence 10 
  d_convergence 10
  r_convergence 8
  maxiter 300
}

energy('ccsd(t)')
