# o-Benzyne preliminary computations

memory 14 gb

molecule {
  0 1
  units bohr
 C   -1.3750712117   -0.0242783422   -0.0029025007
 O    1.3060065526    0.1207007223    0.0023540776
 H   -2.0778699226    1.9096094252    0.0006330313
 H   -2.1048495861   -0.9790633576    1.6809078197
 H   -2.1131107810   -0.9796098575   -1.6829690168
 H    1.9411707887   -1.5774907102    0.0019681789
}

set {
  basis cc-pvtz
  reference rhf
  e_convergence 10 
  d_convergence 10
  r_convergence 8
  maxiter 300
  freeze_core True
}

e, wfn = energy('ccsd(t)', return_wfn = True)
psi4.print_out('Giraffe The Energy is %.12f \n'%(e))
