# o-Benzyne preliminary computations

memory 14 gb

molecule {
  0 1
  units bohr
 C   -1.3758877784   -0.0257410908   -0.0000031460
 O    1.3053926116    0.1194403538   -0.0000014442
 H   -2.0805018239    1.9076739472   -0.0000695356
 H   -2.1070637048   -0.9764712124    1.6853301354
 H   -2.1070449384   -0.9766181764   -1.6852603522
 H    1.9413814740   -1.5784159414   -0.0000040675
}

set {
  basis cc-pvtz
  reference rhf
  e_convergence 10 
  d_convergence 10
  r_convergence 8
  maxiter 300
  freeze_core True
}

e, wfn = energy('ccsd(t)', return_wfn = True)
psi4.print_out('Giraffe The Energy is %.12f \n'%(e))
