# o-Benzyne preliminary computations

memory 14 gb

molecule {
  0 1
  units bohr
 C   -1.3751154942   -0.0253424423    0.0000002461
 O    1.3077465371    0.1160882278    0.0000003609
 H   -2.0792252513    1.9099399226   -0.0000798705
 H   -2.1086591295   -0.9784583339    1.6820920610
 H   -2.1086521466   -0.9785896093   -1.6820199174
 H    1.9401813246   -1.5737698850   -0.0000012901
  no_reorient
  no_com
}

set {
  basis 6-31g*
  reference rhf
  e_convergence 10 
  d_convergence 10
  r_convergence 8
  maxiter 300
  dft_spherical_points 1202
  dft_radial_points 99
  freeze_core True
}


#gradient('ccsd(t)')
gradient('b3lyp')
