# o-Benzyne preliminary computations

memory 14 gb

molecule {
  0 1
  C   -1.3722577839   -0.0227083182    0.0000040453
  O    1.2998732513    0.1269231580    0.0000033964
  H   -2.0758634076    1.9035194250   -0.0009188649
  H   -2.1035071261   -0.9741141648    1.6768707536
  H   -2.1034238843   -0.9756265228   -1.6760402879
  H    1.9483147106   -1.5831320372   -0.0000120325
  units bohr
}

set {
  basis=cc-pVTZ
  reference rhf
  e_convergence 10 
  d_convergence 10
  r_convergence 8
  maxiter 300
}

energy('ccsd(t)')
