# o-Benzyne preliminary computations

memory 14 gb

molecule {
  0 1
  C         -1.3709138324         -0.0244888215          0.0000040301  
  O          1.3014143971          0.1215821258          0.0000033156  
  H         -2.0719523230          1.9026748524         -0.0009188371  
  H         -2.1034302078         -0.9749195812          1.6768708574  
  H         -2.1033490691         -0.9764319984         -1.6760404303  
  H          1.9475768114         -1.5893356669         -0.0000121589  
  units bohr
}

set {
  basis=cc-pVTZ
  reference rhf
  e_convergence 10 
  d_convergence 10
  r_convergence 8
  maxiter 300
}

energy('ccsd(t)')
