# o-Benzyne preliminary computations

memory 14 gb

molecule {
  0 1
  units bohr
 C   -1.3759698094   -0.0243210196    0.0000003917
 O    1.3045737799    0.1202123437    0.0000002610
 H   -2.0781542727    1.9048097757   -0.0000797468
 H   -2.1081560499   -0.9763611435    1.6770458120
 H   -2.1081489293   -0.9764919247   -1.6769738157
 H    1.9421311214   -1.5779801516   -0.0000013122
  no_reorient
  no_com
}

set {
  basis 6-31g*
  reference rhf
  e_convergence 10 
  d_convergence 10
  r_convergence 8
  maxiter 300
  dft_spherical_points 1202
  dft_radial_points 99
  freeze_core True
}


#gradient('ccsd(t)')
gradient('b3lyp')
