# o-Benzyne preliminary computations

memory 14 gb

molecule {
  0 1
  units bohr
 C   -1.3757718088   -0.0233062860    0.0000003883
 O    1.3049761808    0.1240762561    0.0000002375
 H   -2.0799228375    1.9099208458   -0.0000797355
 H   -2.1089956131   -0.9788520815    1.6819853789
 H   -2.1089882200   -0.9789836184   -1.6819133017
 H    1.9449781386   -1.5829872361   -0.0000013774
}

set {
  basis cc-pvtz
  reference rhf
  e_convergence 10 
  d_convergence 10
  r_convergence 8
  maxiter 300
  freeze_core True
}

e, wfn = energy('ccsd(t)', return_wfn = True)
psi4.print_out('Giraffe The Energy is %.12f \n'%(e))
