# o-Benzyne preliminary computations

memory 30 gb

molecule {
  0 1
  H          0.0000000000         -1.4183787688          0.9890141613  
  O          0.0000000000          0.0000000000         -0.1246337637  
  H          0.0000000000          1.4183787688          0.9890141613  
  units bohr
}

set {
  basis=cc-pVTZ
  reference rhf
  e_convergence 10 
  d_convergence 10
  r_convergence 8
  maxiter 300
  geom_maxiter 300
  normal_modes_write true 
}

energy('ccsd(t)')
