# o-Benzyne preliminary computations

memory 14 gb

molecule {
  0 1
  C         -1.3704311298         -0.0239362146          0.0000040974  
  O          1.3019913231          0.1210505651          0.0000033128  
  H         -2.0656572967          1.9052608753         -0.0009260762  
  H         -2.1091123652         -0.9831186559          1.6695838424  
  H         -2.1090377685         -0.9846180949         -1.6687468907  
  H          1.9377489509         -1.5736800598         -0.0000122001  
  units bohr
}

set {
  basis=cc-pVTZ
  reference rhf
  e_convergence 10 
  d_convergence 10
  r_convergence 8
  maxiter 300
}

energy('ccsd(t)')
