# o-Benzyne preliminary computations

memory 14 gb

molecule {
  0 1
  C         -1.3658126587         -0.0238676746          0.0000047752  
  O          1.2975443458          0.1202173777          0.0000029856  
  H         -2.0712926303          1.9020223775         -0.0009206857  
  H         -2.0981195084         -0.9757493602          1.6763525580  
  H         -2.0980288343         -0.9772599978         -1.6755237538  
  H          1.9369679052         -1.5727617607         -0.0000123205  
  units bohr
}

set {
  basis=cc-pVTZ
  reference rhf
  e_convergence 10 
  d_convergence 10
  r_convergence 8
  maxiter 300
}

energy('ccsd(t)')
