# o-Benzyne preliminary computations

memory 14 gb

molecule {
  0 1
  C         -1.3709383443         -0.0245319376          0.0007380819  
  O          1.3018494195          0.1205536488          0.0001366139  
  H         -2.0719909289          1.9029107698         -0.0104208936  
  H         -2.0993914953         -0.9799071109          1.6761198808  
  H         -2.1074868371         -0.9714107440         -1.6767420616  
  H          1.9411022105         -1.5727692575          0.0000867357  
  units bohr
}

set {
  basis=cc-pVTZ
  reference rhf
  e_convergence 10 
  d_convergence 10
  r_convergence 8
  maxiter 300
}

energy('ccsd(t)')
