# o-Benzyne preliminary computations

memory 30 gb

molecule {
  0 1
  H          0.0000000000         -1.4334188070          1.0002979612  
  O          0.0000000000          0.0012286799         -0.1250910748  
  H          0.0000000000          1.4139187661          0.9849882199  
  units bohr
}

set {
  basis=cc-pVTZ
  reference rhf
  e_convergence 10 
  d_convergence 10
  r_convergence 8
  maxiter 300
  geom_maxiter 300
  normal_modes_write true 
}

energy('ccsd(t)')
