# o-Benzyne preliminary computations

memory 14 gb

molecule {
  0 1
  units bohr
 C   -1.3743760239   -0.0252475625    0.0000003118
 O    1.3070529489    0.1173223138    0.0000003625
 H   -2.0758236662    1.9093048008   -0.0000800845
 H   -2.1089819415   -0.9796920227    1.6819623932
 H   -2.1089752743   -0.9798229656   -1.6818901501
 H    1.9373797970   -1.5719966838   -0.0000012427
}

set {
  basis cc-pvtz
  reference rhf
  e_convergence 10 
  d_convergence 10
  r_convergence 8
  maxiter 300
  freeze_core True
}

e, wfn = energy('ccsd(t)', return_wfn = True)
psi4.print_out('Giraffe The Energy is %.12f \n'%(e))
