# o-Benzyne preliminary computations

memory 14 gb

molecule {
  0 1
  C         -1.3709377128         -0.0245334757         -0.0000081405  
  O          1.3018495619          0.1205526983          0.0004988408  
  H         -2.0719921786          1.9029380742         -0.0032677841  
  H         -2.1039554109         -0.9731531092          1.6776490020  
  H         -2.1029317820         -0.9781743295         -1.6752215753  
  H          1.9411025420         -1.5727535784         -0.0069796431  
  units bohr
}

set {
  basis=cc-pVTZ
  reference rhf
  e_convergence 10 
  d_convergence 10
  r_convergence 8
  maxiter 300
}

energy('ccsd(t)')
