# o-Benzyne preliminary computations

memory 14 gb

molecule {
  0 1
  units bohr
 C   -1.3754341714   -0.0218683168    0.0000000881
 O    1.3058366410    0.1216500977   -0.0000000078
 H   -2.0747653040    1.9030939976   -0.0000789421
 H   -2.1099957434   -0.9781806567    1.6834699436
 H   -2.1099880364   -0.9783129902   -1.6833981237
 H    1.9406224542   -1.5765142516   -0.0000013682
}

set {
  basis cc-pvtz
  reference rhf
  e_convergence 10 
  d_convergence 10
  r_convergence 8
  maxiter 300
  freeze_core True
}

e, wfn = energy('ccsd(t)', return_wfn = True)
psi4.print_out('Giraffe The Energy is %.12f \n'%(e))
