# o-Benzyne preliminary computations

memory 14 gb

molecule {
  0 1
  C   -1.3773624315   -0.0241293683    0.0000021239
  O    1.2971305462    0.1216015635    0.0000020270
  H   -2.0659026951    1.9075752872   -0.0009167191
  H   -2.0987969539   -0.9785440165    1.6790318426
  H   -2.0987100749   -0.9800649829   -1.6781989830
  H    1.9367773692   -1.5715769429   -0.0000132813
  units bohr
}

set {
  basis=cc-pVTZ
  reference rhf
  e_convergence 10 
  d_convergence 10
  r_convergence 8
  maxiter 300
}

energy('ccsd(t)')
