# o-Benzyne preliminary computations

memory 14 gb

molecule {
  0 1
  C   -1.3709375600   -0.0245336400    0.0000040300
  O    1.3018494000    0.1205538100    0.0000033000
  H   -2.0719929600    1.9029399000   -0.0009189600
  H   -2.1034834600   -0.9749087500    1.6768523100
  H   -2.1034022900   -0.9764209900   -1.6760217300
  H    1.9411026300   -1.5727687900   -0.0000119400
  units bohr
}

set {
  basis=cc-pVTZ
  reference rhf
  e_convergence 10 
  d_convergence 10
  r_convergence 8
  maxiter 300
}

energy('ccsd(t)')
