# o-Benzyne preliminary computations

memory 14 gb

molecule {
  0 1
  units bohr
 C   -1.3762587014   -0.0214958694   -0.0000006023
 O    1.3051042735    0.1165287217   -0.0000006752
 H   -2.0813001085    1.9116787902   -0.0000777304
 H   -2.1096790114   -0.9791123588    1.6806707538
 H   -2.1096703219   -0.9792460323   -1.6805991855
 H    1.9480797096   -1.5784853714   -0.0000009704
}

set {
  basis cc-pvtz
  reference rhf
  e_convergence 10 
  d_convergence 10
  r_convergence 8
  maxiter 300
  freeze_core True
}

e, wfn = energy('ccsd(t)', return_wfn = True)
psi4.print_out('Giraffe The Energy is %.12f \n'%(e))
