# o-Benzyne preliminary computations

memory 14 gb

molecule {
  0 1
  units bohr
 C   -1.3737812963   -0.0268763234    0.0000005640
 O    1.2997105178    0.1198071736    0.0000000763
 H   -2.0719043617    1.9088696916   -0.0000804118
 H   -2.1116860834   -0.9788670894    1.6822705898
 H   -2.1116803866   -0.9789972245   -1.6821984585
 H    1.9456174503   -1.5740683481   -0.0000007698
}

set {
  basis cc-pvtz
  reference rhf
  e_convergence 10 
  d_convergence 10
  r_convergence 8
  maxiter 300
  freeze_core True
}

e, wfn = energy('ccsd(t)', return_wfn = True)
psi4.print_out('Giraffe The Energy is %.12f \n'%(e))
