# o-Benzyne preliminary computations

memory 14 gb

molecule {
  0 1
  C         -1.3709378979         -0.0245342196          0.0010642447  
  O          1.3018495324          0.1205537218         -0.0004725418  
  H         -2.0719928033          1.9029353279         -0.0031262518  
  H         -2.1083016730         -0.9757023922          1.6753688915  
  H         -2.0985834437         -0.9756146889         -1.6774975826  
  H          1.9411037624         -1.5727685762          0.0000827833  
  units bohr
}

set {
  basis=cc-pVTZ
  reference rhf
  e_convergence 10 
  d_convergence 10
  r_convergence 8
  maxiter 300
}

energy('ccsd(t)')
