# o-Benzyne preliminary computations

memory 14 gb

molecule {
  0 1
  C   -1.3709360252   -0.0245349043    0.0023824801
  O    1.3018483151    0.1205522216   -0.0018690931
  H   -2.0719950293    1.9029333084   -0.0016623233
  H   -2.1066248085   -0.9752204069    1.6776976105
  H   -2.1002596890   -0.9760988652   -1.6751765458
  H    1.9411029970   -1.5727698136   -0.0014651183
  units bohr
}

set {
  basis=cc-pVTZ
  reference rhf
  e_convergence 10 
  d_convergence 10
  r_convergence 8
  maxiter 300
}

energy('ccsd(t)')
