# o-Benzyne preliminary computations

memory 14 gb

molecule {
  0 1
  units bohr
 C   -1.3785479283   -0.0244565090    0.0000003634
 O    1.3078967080    0.1179107291    0.0000002895
 H   -2.0777614086    1.9112709095   -0.0000799351
 H   -2.1152550133   -0.9786536814    1.6820061643
 H   -2.1152482328   -0.9787849372   -1.6819339738
 H    1.9551917150   -1.5774186310   -0.0000013183
  no_reorient
  no_com
}

set {
  basis 6-31g*
  reference rhf
  e_convergence 10 
  d_convergence 10
  r_convergence 8
  maxiter 300
  dft_spherical_points 1202
  dft_radial_points 99
  freeze_core True
}


#gradient('ccsd(t)')
gradient('b3lyp')
