# o-Benzyne preliminary computations

memory 14 gb

molecule {
  0 1
  units bohr
 C   -1.3750737184   -0.0242785893    0.0011363070
 O    1.3060142559    0.1206932664    0.0042807286
 H   -2.0778678121    1.9096109890   -0.0021067299
 H   -2.1083790265   -0.9787051437    1.6819252878
 H   -2.1095946708   -0.9799702551   -1.6819510100
 H    1.9411768119   -1.5774823873   -0.0032929935
  no_reorient
  no_com
}

set {
  basis 6-31g*
  reference rhf
  e_convergence 10 
  d_convergence 10
  r_convergence 8
  maxiter 300
  dft_spherical_points 1202
  dft_radial_points 99
  freeze_core True
}


#gradient('ccsd(t)')
gradient('b3lyp')
