# o-Benzyne preliminary computations

memory 14 gb

molecule {
  0 1
  C         -1.3706714146         -0.0252008835          0.0000040443  
  O          1.3012868193          0.1205797180          0.0000033335  
  H         -2.0667790414          1.9041055965         -0.0009186081  
  H         -2.1058916978         -0.9728879612          1.6772130133  
  H         -2.1058141373         -0.9744014887         -1.6763828091  
  H          1.9464684129         -1.5704412011         -0.0000126169  
  units bohr
}

set {
  basis=cc-pVTZ
  reference rhf
  e_convergence 10 
  d_convergence 10
  r_convergence 8
  maxiter 300
}

energy('ccsd(t)')
