# o-Benzyne preliminary computations

memory 14 gb

molecule {
  0 1
  C         -1.3709376171         -0.0245336518          0.0000162032  
  O          1.3018494456          0.1205527770         -0.0004922408  
  H         -2.0719913631          1.9029402976          0.0014298571  
  H         -2.1030130309         -0.9766627407          1.6760538844  
  H         -2.1038743307         -0.9746660055         -1.6768201742  
  H          1.9411026004         -1.5727536454          0.0069557600  
  units bohr
}

set {
  basis=cc-pVTZ
  reference rhf
  e_convergence 10 
  d_convergence 10
  r_convergence 8
  maxiter 300
}

energy('ccsd(t)')
