# o-Benzyne preliminary computations

memory 14 gb

molecule {
  0 1
  C   -1.3709379270   -0.0245356775   -0.0008212314
  O    1.3018480618    0.1205459820   -0.0033398440
  H   -2.0719877309    1.9029397421    0.0003009044
  H   -2.1017917931   -0.9759651961    1.6761464001
  H   -2.1050989261   -0.9753651530   -1.6767264329
  H    1.9411040754   -1.5727581575    0.0043472137
  units bohr
}

set {
  basis=cc-pVTZ
  reference rhf
  e_convergence 10 
  d_convergence 10
  r_convergence 8
  maxiter 300
}

energy('ccsd(t)')
