# o-Benzyne preliminary computations

memory 14 gb

molecule {
  0 1
  units bohr
 C   -1.3750717938   -0.0242768071   -0.0025901240
 O    1.3060139438    0.1207006434   -0.0010621174
 H   -2.0778741984    1.9096124029   -0.0023808241
 H   -2.1115254242   -0.9822020647    1.6853161486
 H   -2.1064402108   -0.9764735445   -1.6785642180
 H    1.9411735235   -1.5774927500   -0.0007272751
}

set {
  basis cc-pvtz
  reference rhf
  e_convergence 10 
  d_convergence 10
  r_convergence 8
  maxiter 300
  freeze_core True
}

e, wfn = energy('ccsd(t)', return_wfn = True)
psi4.print_out('Giraffe The Energy is %.12f \n'%(e))
