# o-Benzyne preliminary computations

memory 14 gb

molecule {
  0 1
  C   -1.3685324668   -0.0231665604    0.0000033297
  O    1.3034958979    0.1209201147    0.0000030308
  H   -2.0720293313    1.9099453797   -0.0009223903
  H   -2.1061570310   -0.9793632834    1.6869274964
  H   -2.1060751747   -0.9808842793   -1.6860922735
  H    1.9424338659   -1.5725898313   -0.0000121831
  units bohr
}

set {
  basis=cc-pVTZ
  reference rhf
  e_convergence 10 
  d_convergence 10
  r_convergence 8
  maxiter 300
}

energy('ccsd(t)')
