# o-Benzyne preliminary computations

memory 14 gb

molecule {
  0 1
  C   -1.3692412634   -0.0218443692    0.0000042521
  O    1.3031293565    0.1240911042    0.0000034413
  H   -2.0651522142    1.9071056522   -0.0009259226
  H   -2.1075818746   -0.9812889068    1.6695838957
  H   -2.1075067743   -0.9827883391   -1.6687465923
  H    1.9394885299   -1.5704136013   -0.0000120642
  units bohr
}

set {
  basis=cc-pVTZ
  reference rhf
  e_convergence 10 
  d_convergence 10
  r_convergence 8
  maxiter 300
}

energy('ccsd(t)')
