# o-Benzyne preliminary computations

memory 14 gb

molecule {
  0 1
  C   -1.3709395234   -0.0245294052    0.0024558365
  O    1.3018481101    0.1205549516    0.0018434794
  H   -2.0719912636    1.9029156038   -0.0083254153
  H   -2.0993689319   -0.9802236640    1.6776657890
  H   -2.1075126374   -0.9710878311   -1.6751941087
  H    1.9411000062   -1.5727681150    0.0014614290
  units bohr
}

set {
  basis=cc-pVTZ
  reference rhf
  e_convergence 10 
  d_convergence 10
  r_convergence 8
  maxiter 300
}

energy('ccsd(t)')
