# o-Benzyne preliminary computations

memory 14 gb

molecule {
  0 1
  units bohr
 C   -1.3750701477   -0.0242787557    0.0008241142
 O    1.3060182496    0.1207001631   -0.0015462058
 H   -2.0778764320    1.9096089409    0.0008457580
 H   -2.1156488580   -0.9779667938    1.6840536134
 H   -2.1023216834   -0.9807033719   -1.6798004271
 H    1.9411747116   -1.5774923026   -0.0043852626
  no_reorient
  no_com
}

set {
  basis 6-31g*
  reference rhf
  e_convergence 10 
  d_convergence 10
  r_convergence 8
  maxiter 300
  dft_spherical_points 1202
  dft_radial_points 99
  freeze_core True
}


#gradient('ccsd(t)')
gradient('b3lyp')
