# o-Benzyne preliminary computations

memory 14 gb

molecule {
  0 1
  units bohr
 C   -1.3745148226   -0.0251312560    0.0000003413
 O    1.3039496927    0.1212483802    0.0000002431
 H   -2.0696431984    1.9078275107   -0.0000798848
 H   -2.1115833499   -0.9809136465    1.6810031047
 H   -2.1115765869   -0.9810448194   -1.6809308546
 H    1.9396441051   -1.5721182890   -0.0000013597
  no_reorient
  no_com
}

set {
  basis 6-31g*
  reference rhf
  e_convergence 10 
  d_convergence 10
  r_convergence 8
  maxiter 300
  dft_spherical_points 1202
  dft_radial_points 99
  freeze_core True
}


#gradient('ccsd(t)')
gradient('b3lyp')
