# o-Benzyne preliminary computations

memory 14 gb

molecule {
  0 1
  units bohr
 C   -1.3724181757   -0.0234599587    0.0000070847
 O    1.3057048530    0.1204355066   -0.0000019353
 H   -2.0787005976    1.9093241907   -0.0000821850
 H   -2.1097590635   -0.9794179090    1.6817302324
 H   -2.1097515703   -0.9795474023   -1.6816607887
 H    1.9412003941   -1.5774665473   -0.0000008182
  no_reorient
  no_com
}

set {
  basis 6-31g*
  reference rhf
  e_convergence 10 
  d_convergence 10
  r_convergence 8
  maxiter 300
  dft_spherical_points 1202
  dft_radial_points 99
  freeze_core True
}


#gradient('ccsd(t)')
gradient('b3lyp')
