# o-Benzyne preliminary computations

memory 14 gb

molecule {
  0 1
  units bohr
 C   -1.3742627580   -0.0228188613    0.0000038478
 O    1.3066354037    0.1219629060    0.0000020448
 H   -2.0752399242    1.9115476536   -0.0000902582
 H   -2.1109097662   -0.9820706288    1.6786038590
 H   -2.1109144720   -0.9821861903   -1.6785293495
 H    1.9409673568   -1.5765669991    0.0000014461
}

set {
  basis cc-pvtz
  reference rhf
  e_convergence 10 
  d_convergence 10
  r_convergence 8
  maxiter 300
  freeze_core True
}

e, wfn = energy('ccsd(t)', return_wfn = True)
psi4.print_out('Giraffe The Energy is %.12f \n'%(e))
