# o-Benzyne preliminary computations

memory 14 gb

molecule {
  0 1
  units bohr
 C   -1.3750677901   -0.0242768732   -0.0027222096
 O    1.3060117461    0.1207005823    0.0009029852
 H   -2.0778727782    1.9096084920    0.0008471308
 H   -2.1088927335   -0.9789177486    1.6825195101
 H   -2.1090767022   -0.9797552826   -1.6813589324
 H    1.9411740978   -1.5774912899   -0.0001968941
  no_reorient
  no_com
}

set {
  basis 6-31g*
  reference rhf
  e_convergence 10 
  d_convergence 10
  r_convergence 8
  maxiter 300
  dft_spherical_points 1202
  dft_radial_points 99
  freeze_core True
}


#gradient('ccsd(t)')
gradient('b3lyp')
