# o-Benzyne preliminary computations

memory 14 gb

molecule {
  0 1
  units bohr
 C   -1.3756634992   -0.0241915408    0.0000003552
 O    1.3125735066    0.1228883948    0.0000002800
 H   -2.0783624866    1.9088836705   -0.0000799103
 H   -2.1107275171   -0.9799115510    1.6804779741
 H   -2.1107204701   -0.9800426607   -1.6804057849
 H    1.9391763064   -1.5777584328   -0.0000013240
  no_reorient
  no_com
}

set {
  basis 6-31g*
  reference rhf
  e_convergence 10 
  d_convergence 10
  r_convergence 8
  maxiter 300
  dft_spherical_points 1202
  dft_radial_points 99
  freeze_core True
}


#gradient('ccsd(t)')
gradient('b3lyp')
