# o-Benzyne preliminary computations

memory 14 gb

molecule {
  0 1
  units bohr
 C   -1.3750809947   -0.0242807529    0.0027229267
 O    1.3060133026    0.1207018536   -0.0009024060
 H   -2.0778686528    1.9096098373   -0.0010069597
 H   -2.1090799446   -0.9796233596    1.6814323181
 H   -2.1088818489   -0.9790482911   -1.6824485498
 H    1.9411739784   -1.5774914074    0.0001942606
  no_reorient
  no_com
}

set {
  basis 6-31g*
  reference rhf
  e_convergence 10 
  d_convergence 10
  r_convergence 8
  maxiter 300
  dft_spherical_points 1202
  dft_radial_points 99
  freeze_core True
}


#gradient('ccsd(t)')
gradient('b3lyp')
