# o-Benzyne preliminary computations

memory 14 gb

molecule {
  0 1
  units bohr
 C   -1.3752976788   -0.0227657553    0.0000003713
 O    1.3070489525    0.1210729294    0.0000002595
 H   -2.0774224888    1.9035763346   -0.0000796562
 H   -2.1095645077   -0.9772077562    1.6858581112
 H   -2.1095574408   -0.9773393449   -1.6857861865
 H    1.9410690037   -1.5774685275   -0.0000013093
  no_reorient
  no_com
}

set {
  basis 6-31g*
  reference rhf
  e_convergence 10 
  d_convergence 10
  r_convergence 8
  maxiter 300
  dft_spherical_points 1202
  dft_radial_points 99
  freeze_core True
}


#gradient('ccsd(t)')
gradient('b3lyp')
