# o-Benzyne preliminary computations

memory 14 gb

molecule {
  0 1
  C   -1.3747423836   -0.0256692815    0.0000023247
  O    1.3074530978    0.1208154881    0.0000044751
  H   -2.0716512176    1.9032760356   -0.0009182893
  H   -2.1073904906   -0.9746450461    1.6773488778
  H   -2.1073163675   -0.9761582632   -1.6765197867
  H    1.9467831215   -1.5727573929   -0.0000105916
  units bohr
}

set {
  basis=cc-pVTZ
  reference rhf
  e_convergence 10 
  d_convergence 10
  r_convergence 8
  maxiter 300
}

energy('ccsd(t)')
