# o-Benzyne preliminary computations

memory 14 gb

molecule {
  0 1
  C         -1.3760626233         -0.0251994516          0.0000032861  
  O          1.3061545805          0.1208906014          0.0000036148  
  H         -2.0726876168          1.9038485459         -0.0009172288  
  H         -2.1088493071         -0.9740671354          1.6773506224  
  H         -2.1087776529         -0.9755809945         -1.6765182881  
  H          1.9452354086         -1.5727764661         -0.0000115640  
  units bohr
}

set {
  basis=cc-pVTZ
  reference rhf
  e_convergence 10 
  d_convergence 10
  r_convergence 8
  maxiter 300
}

energy('ccsd(t)')
