# o-Benzyne preliminary computations

memory 14 gb

molecule {
  0 1
  H          0.0000000000         -1.4236653500          0.9926470200  
  O          0.0000000000          0.0000000000         -0.1250915700  
  H          0.0000000000          1.4236653500          0.9926470200  
  units bohr
}

set {
  basis=cc-pVTZ
  reference rhf
  e_convergence 10 
  d_convergence 10
  r_convergence 8
  maxiter 300
}

energy('ccsd(t)')
