# o-Benzyne preliminary computations

memory 14 gb

molecule {
  0 1
  units bohr
 C   -1.3741779242   -0.0242329672    0.0000003081
 O    1.3074573880    0.1211894754    0.0000003391
 H   -2.0775902479    1.9144170070   -0.0000800730
 H   -2.1098187739   -0.9821854256    1.6869021336
 H   -2.1098118348   -0.9823171246   -1.6868298100
 H    1.9402172327   -1.5770030850   -0.0000013078
  no_reorient
  no_com
}

set {
  basis 6-31g*
  reference rhf
  e_convergence 10 
  d_convergence 10
  r_convergence 8
  maxiter 300
  dft_spherical_points 1202
  dft_radial_points 99
  freeze_core True
}


#gradient('ccsd(t)')
gradient('b3lyp')
