# o-Benzyne preliminary computations

memory 14 gb

molecule {
  0 1
  C   -1.3703830134   -0.0291568390    0.0000061577
  O    1.3020895609    0.1187126911    0.0000041507
  H   -2.0779098957    1.9148821347   -0.0009244912
  H   -2.1014139999   -0.9767163162    1.6734991320
  H   -2.1013329055   -0.9782249993   -1.6726666719
  H    1.9420860135   -1.5746351314   -0.0000112673
  units bohr
}

set {
  basis=cc-pVTZ
  reference rhf
  e_convergence 10 
  d_convergence 10
  r_convergence 8
  maxiter 300
}

energy('ccsd(t)')
