# o-Benzyne preliminary computations

memory 14 gb

molecule {
  0 1
  C         -1.3706976087         -0.0260971742          0.0000047396  
  O          1.3018408403          0.1205804905          0.0000032902  
  H         -2.0773574638          1.9182572875         -0.0009262414  
  H         -2.1021515204         -0.9733304470          1.6734977586  
  H         -2.1020703867         -0.9748394711         -1.6726682913  
  H          1.9410820812         -1.5730527050         -0.0000118402  
  units bohr
}

set {
  basis=cc-pVTZ
  reference rhf
  e_convergence 10 
  d_convergence 10
  r_convergence 8
  maxiter 300
}

energy('ccsd(t)')
