# o-Benzyne preliminary computations

memory 14 gb

molecule {
  0 1
  C         -1.3711775299         -0.0229697781          0.0000033229  
  O          1.3018573784          0.1205273179          0.0000033097  
  H         -2.0666204462          1.8876259418         -0.0009116870  
  H         -2.1048144394         -0.9764921950          1.6802036489  
  H         -2.1047332416         -0.9780076558         -1.6793719744  
  H          1.9411227048         -1.5724849078         -0.0000120428  
  units bohr
}

set {
  basis=cc-pVTZ
  reference rhf
  e_convergence 10 
  d_convergence 10
  r_convergence 8
  maxiter 300
}

energy('ccsd(t)')
