# o-Benzyne preliminary computations

memory 14 gb

molecule {
  0 1
  units bohr
 C   -1.3738799183   -0.0270579074    0.0000013028
 O    1.3069186403    0.1248622363    0.0000012754
 H   -2.0744363931    1.9075455138   -0.0000820917
 H   -2.1082844957   -0.9794373573    1.6832711361
 H   -2.1082791279   -0.9795661599   -1.6831983839
 H    1.9342371347   -1.5764784455   -0.0000016487
}

set {
  basis cc-pvtz
  reference rhf
  e_convergence 10 
  d_convergence 10
  r_convergence 8
  maxiter 300
  freeze_core True
}

e, wfn = energy('ccsd(t)', return_wfn = True)
psi4.print_out('Giraffe The Energy is %.12f \n'%(e))
