# o-Benzyne preliminary computations

memory 14 gb

molecule {
  0 1
  C   -1.3714892814   -0.0199079319    0.0000018997
  O    1.3016092994    0.1223944739    0.0000024490
  H   -2.0660781809    1.8909982723   -0.0009134264
  H   -2.1055525886   -0.9731021521    1.6802020382
  H   -2.1054713424   -0.9746179489   -1.6793733388
  H    1.9401178540   -1.5709031733   -0.0000126117
  units bohr
}

set {
  basis=cc-pVTZ
  reference rhf
  e_convergence 10 
  d_convergence 10
  r_convergence 8
  maxiter 300
}

energy('ccsd(t)')
