# o-Benzyne preliminary computations

memory 14 gb

molecule {
  0 1
  C   -1.3709378998   -0.0245352893    0.0008292912
  O    1.3018483254    0.1205456829    0.0033464441
  H   -2.0719867646    1.9029386135   -0.0021388235
  H   -2.1051806383   -0.9738522716    1.6775558425
  H   -2.1017111749   -0.9774767935   -1.6753146507
  H    1.9411039122   -1.5727584019   -0.0043710937
  units bohr
}

set {
  basis=cc-pVTZ
  reference rhf
  e_convergence 10 
  d_convergence 10
  r_convergence 8
  maxiter 300
}

energy('ccsd(t)')
