# o-Benzyne preliminary computations

memory 14 gb

molecule {
  0 1
  C         -1.3714443073         -0.0251390272          0.0000039724  
  O          1.3017070986          0.1200573399          0.0000032863  
  H         -2.0783308173          1.9005914658         -0.0009118442  
  H         -2.0978494655         -0.9666446120          1.6840585345  
  H         -2.0977617266         -0.9681696135         -1.6832344211  
  H          1.9444581089         -1.5718482888         -0.0000116866  
  units bohr
}

set {
  basis=cc-pVTZ
  reference rhf
  e_convergence 10 
  d_convergence 10
  r_convergence 8
  maxiter 300
}

energy('ccsd(t)')
