# o-Benzyne preliminary computations

memory 14 gb

molecule {
  0 1
  units bohr
 C   -1.3744797604   -0.0243693703    0.0000003448
 O    1.2994613885    0.1185011918    0.0000003199
 H   -2.0773706994    1.9103392314   -0.0000799095
 H   -2.1072494171   -0.9786355057    1.6834685780
 H   -2.1072424049   -0.9787668760   -1.6833964474
 H    1.9431567333   -1.5772007911   -0.0000012959
  no_reorient
  no_com
}

set {
  basis 6-31g*
  reference rhf
  e_convergence 10 
  d_convergence 10
  r_convergence 8
  maxiter 300
  dft_spherical_points 1202
  dft_radial_points 99
  freeze_core True
}


#gradient('ccsd(t)')
gradient('b3lyp')
