# o-Benzyne preliminary computations

memory 14 gb

molecule {
  0 1
  C         -1.3709369051         -0.0245321476         -0.0007300194  
  O          1.3018496928          0.1205537112         -0.0001300135  
  H         -2.0719943474          1.9029184575          0.0085829797  
  H         -2.1075765518         -0.9699014102          1.6775618162  
  H         -2.0993188940         -0.9814222364         -1.6752785157  
  H          1.9411012683         -1.5727696425         -0.0001106176  
  units bohr
}

set {
  basis=cc-pVTZ
  reference rhf
  e_convergence 10 
  d_convergence 10
  r_convergence 8
  maxiter 300
}

energy('ccsd(t)')
