# o-Benzyne preliminary computations

memory 14 gb

molecule {
  0 1
  C         -1.3709370634         -0.0245342349         -0.0010561804  
  O          1.3018488778          0.1205537348          0.0004791420  
  H         -2.0719973675          1.9029364652          0.0012883207  
  H         -2.0986615486         -0.9741029917          1.6783270800  
  H         -2.1082174549         -0.9772151701         -1.6745372686  
  H          1.9411026666         -1.5727686567         -0.0001066666  
  units bohr
}

set {
  basis=cc-pVTZ
  reference rhf
  e_convergence 10 
  d_convergence 10
  r_convergence 8
  maxiter 300
}

energy('ccsd(t)')
