# o-Benzyne preliminary computations

memory 14 gb

molecule {
  0 1
  C   -1.3709353545   -0.0245349796   -0.0023744151
  O    1.3018474861    0.1205523980    0.0018756963
  H   -2.0719980719    1.9029348592   -0.0001755995
  H   -2.1003387050   -0.9745875298    1.6760064137
  H   -2.1065414933   -0.9767335392   -1.6768663262
  H    1.9411018986   -1.5727696686    0.0014412407
  units bohr
}

set {
  basis=cc-pVTZ
  reference rhf
  e_convergence 10 
  d_convergence 10
  r_convergence 8
  maxiter 300
}

energy('ccsd(t)')
