# o-Benzyne preliminary computations

memory 14 gb

molecule {
  0 1
  C         -1.3707501469         -0.0255109578          0.0000041044  
  O          1.3020186459          0.1211518986          0.0000033113  
  H         -2.0691668719          1.9029182093         -0.0009182779  
  H         -2.1044529446         -0.9729429530          1.6780031862  
  H         -2.1043734114         -0.9744571892         -1.6771739186  
  H          1.9352995968         -1.5745320416         -0.0000123749  
  units bohr
}

set {
  basis=cc-pVTZ
  reference rhf
  e_convergence 10 
  d_convergence 10
  r_convergence 8
  maxiter 300
}

energy('ccsd(t)')
