# o-Benzyne preliminary computations

memory 14 gb

molecule {
  0 1
  units bohr
 C   -1.3742835395   -0.0267737448    0.0000004175
 O    1.3059556771    0.1214742263    0.0000003033
 H   -2.0779716516    1.9098569684   -0.0000799118
 H   -2.1092818836   -0.9784853000    1.6821812620
 H   -2.1092749098   -0.9786165698   -1.6821091765
 H    1.9411321474   -1.5775877001   -0.0000013046
  no_reorient
  no_com
}

set {
  basis 6-31g*
  reference rhf
  e_convergence 10 
  d_convergence 10
  r_convergence 8
  maxiter 300
  dft_spherical_points 1202
  dft_radial_points 99
  freeze_core True
}


#gradient('ccsd(t)')
gradient('b3lyp')
