# o-Benzyne preliminary computations

memory 14 gb

molecule {
  0 1
  units bohr
 C   -1.3758633513   -0.0217760437    0.0000002822
 O    1.3060725544    0.1199271368    0.0000002968
 H   -2.0777789359    1.9093720648   -0.0000799082
 H   -2.1086859489   -0.9800620358    1.6817600589
 H   -2.1086788628   -0.9801932457   -1.6816878244
 H    1.9412103845   -1.5773999963   -0.0000013153
  no_reorient
  no_com
}

set {
  basis 6-31g*
  reference rhf
  e_convergence 10 
  d_convergence 10
  r_convergence 8
  maxiter 300
  dft_spherical_points 1202
  dft_radial_points 99
  freeze_core True
}


#gradient('ccsd(t)')
gradient('b3lyp')
