# o-Benzyne preliminary computations

memory 14 gb

molecule {
  0 1
  C         -1.3701235164         -0.0240953414          0.0000037935  
  O          1.3018746808          0.1205532867          0.0000033085  
  H         -2.0740269521          1.9088687465         -0.0009218305  
  H         -2.1075469005         -0.9804472795          1.6869281026  
  H         -2.1074649668         -0.9819681714         -1.6860919133  
  H          1.9411688375         -1.5728223666         -0.0000119978  
  units bohr
}

set {
  basis=cc-pVTZ
  reference rhf
  e_convergence 10 
  d_convergence 10
  r_convergence 8
  maxiter 300
}

energy('ccsd(t)')
