# o-Benzyne preliminary computations

memory 14 gb

molecule {
  0 1
  units bohr
 C   -1.3719481126   -0.0205570563   -0.0000003049
 O    1.3054488879    0.1210761732   -0.0000006055
 H   -2.0838167140    1.9100359615   -0.0000786216
 H   -2.1021906969   -0.9799601901    1.6812247864
 H   -2.1021828330   -0.9800923943   -1.6811531210
 H    1.9309653087   -1.5806346139   -0.0000005435
}

set {
  basis cc-pvtz
  reference rhf
  e_convergence 10 
  d_convergence 10
  r_convergence 8
  maxiter 300
  freeze_core True
}

e, wfn = energy('ccsd(t)', return_wfn = True)
psi4.print_out('Giraffe The Energy is %.12f \n'%(e))
