# o-Benzyne preliminary computations

memory 14 gb

molecule {
  0 1
  C         -1.3729560360         -0.0243713179          0.0000034556  
  O          1.3015781198          0.1206055169          0.0000032138  
  H         -2.0609516467          1.9075275432         -0.0009150944  
  H         -2.0946595839         -0.9785827991          1.6790332075  
  H         -2.0945733423         -0.9801033473         -1.6781978648  
  H          1.9407475539         -1.5727533951         -0.0000123602  
  units bohr
}

set {
  basis=cc-pVTZ
  reference rhf
  e_convergence 10 
  d_convergence 10
  r_convergence 8
  maxiter 300
}

energy('ccsd(t)')
