# o-Benzyne preliminary computations

memory 14 gb

molecule {
  0 1
  units bohr
 C   -1.3750689722   -0.0242719870   -0.0015693720
 O    1.3060139010    0.1207030827   -0.0010273743
 H   -2.0778690936    1.9096089993    0.0043611747
 H   -2.1113247697   -0.9760962966    1.6814561322
 H   -2.1066466590   -0.9825848853   -1.6824047087
 H    1.9411714336   -1.5774910332   -0.0008242619
}

set {
  basis cc-pvtz
  reference rhf
  e_convergence 10 
  d_convergence 10
  r_convergence 8
  maxiter 300
  freeze_core True
}

e, wfn = energy('ccsd(t)', return_wfn = True)
psi4.print_out('Giraffe The Energy is %.12f \n'%(e))
