# o-Benzyne preliminary computations

memory 14 gb

molecule {
  0 1
  units bohr
 H    0.0000000000   -1.4324558849    0.9949211836
 O    0.0000000000   -0.0000000000   -0.1234987471
 H    0.0000000000    1.4324558849    0.9949211836
}

set {
  basis 6-31g*
  reference rhf
  e_convergence 10 
  d_convergence 10
  r_convergence 8
  maxiter 300
  freeze_core True
}

e, wfn = energy('b3lyp', return_wfn = True)
psi4.print_out('Giraffe The Energy is %.12f \n'%(e))
