# o-Benzyne preliminary computations

memory 14 gb

molecule {
  0 1
  units bohr
 C   -1.3738490042   -0.0234154608    0.0000000680
 O    1.3068860059    0.1209490986   -0.0000001190
 H   -2.0777208444    1.9129609970   -0.0000794322
 H   -2.1104424034   -0.9815735782    1.6874227081
 H   -2.1104353238   -0.9817057593   -1.6873506856
 H    1.9418374098   -1.5773474173   -0.0000009494
}

set {
  basis cc-pvtz
  reference rhf
  e_convergence 10 
  d_convergence 10
  r_convergence 8
  maxiter 300
  freeze_core True
}

e, wfn = energy('ccsd(t)', return_wfn = True)
psi4.print_out('Giraffe The Energy is %.12f \n'%(e))
