# o-Benzyne preliminary computations

memory 14 gb

molecule {
  0 1
  units bohr
 C   -1.3715953205   -0.0241052032    0.0000003367
 O    1.3041373459    0.1234567962    0.0000003105
 H   -2.0779679828    1.9079443426   -0.0000798848
 H   -2.1027227620   -0.9798888573    1.6819405784
 H   -2.1027154832   -0.9800200810   -1.6818684489
 H    1.9271400426   -1.5775191174   -0.0000013019
  no_reorient
  no_com
}

set {
  basis 6-31g*
  reference rhf
  e_convergence 10 
  d_convergence 10
  r_convergence 8
  maxiter 300
  dft_spherical_points 1202
  dft_radial_points 99
  freeze_core True
}


#gradient('ccsd(t)')
gradient('b3lyp')
