# o-Benzyne preliminary computations

memory 14 gb

molecule {
  0 1
  units bohr
 C   -1.3771694310   -0.0240120448   -0.0000004736
 O    1.3044776128    0.1209946547    0.0000006933
 H   -2.0758865015    1.9112500735   -0.0000773519
 H   -2.1075169406   -0.9805623951    1.6825119139
 H   -2.1075056160   -0.9806987043   -1.6824398843
 H    1.9398767164   -1.5771037040   -0.0000033074
}

set {
  basis cc-pvtz
  reference rhf
  e_convergence 10 
  d_convergence 10
  r_convergence 8
  maxiter 300
  freeze_core True
}

e, wfn = energy('ccsd(t)', return_wfn = True)
psi4.print_out('Giraffe The Energy is %.12f \n'%(e))
