# o-Benzyne preliminary computations

memory 14 gb

molecule {
  0 1
  units bohr
 C   -1.3750737070   -0.0242786003   -0.0011356070
 O    1.3060142508    0.1206932444   -0.0042801285
 H   -2.0778677914    1.9096111156    0.0019469099
 H   -2.1096017198   -0.9798390581    1.6820232078
 H   -2.1083720163   -0.9788364267   -1.6818531656
 H    1.9411768238   -1.5774823950    0.0032903734
  no_reorient
  no_com
}

set {
  basis 6-31g*
  reference rhf
  e_convergence 10 
  d_convergence 10
  r_convergence 8
  maxiter 300
  dft_spherical_points 1202
  dft_radial_points 99
  freeze_core True
}


#gradient('ccsd(t)')
gradient('b3lyp')
