# o-Benzyne preliminary computations

memory 14 gb

molecule {
  0 1
  C   -1.3733398597   -0.0259011003    0.0000047302
  O    1.3002052973    0.1201881282    0.0000035692
  H   -2.0719561479    1.8959331144   -0.0009155290
  H   -2.1008140159   -0.9704540793    1.6667741668
  H   -2.1007335334   -0.9719575612   -1.6659482298
  H    1.9397740197   -1.5729469618   -0.0000116974
  units bohr
}

set {
  basis=cc-pVTZ
  reference rhf
  e_convergence 10 
  d_convergence 10
  r_convergence 8
  maxiter 300
}

energy('ccsd(t)')
