# o-Benzyne preliminary computations

memory 14 gb

molecule {
  0 1
  C         -1.3717513437         -0.0249716441          0.0000042690  
  O          1.3018247247          0.1205543542          0.0000032917  
  H         -2.0699627824          1.8970098466         -0.0009160971  
  H         -2.0994246410         -0.9693713632          1.6667737957  
  H         -2.0993442441         -0.9708749559         -1.6659488469  
  H          1.9410367852         -1.5727155543         -0.0000118857  
  units bohr
}

set {
  basis=cc-pVTZ
  reference rhf
  e_convergence 10 
  d_convergence 10
  r_convergence 8
  maxiter 300
}

energy('ccsd(t)')
