# o-Benzyne preliminary computations

memory 14 gb

molecule {
  0 1
  units bohr
 C   -1.3750722674   -0.0242788081    0.0008382290
 O    1.3060147756    0.1206919397    0.0035774666
 H   -2.0778683037    1.9096115933   -0.0013663174
 H   -2.1107397792   -0.9781494988    1.6827139215
 H   -2.1072350260   -0.9805262244   -1.6811597441
 H    1.9411764407   -1.5774811217   -0.0046119657
}

set {
  basis cc-pvtz
  reference rhf
  e_convergence 10 
  d_convergence 10
  r_convergence 8
  maxiter 300
  freeze_core True
}

e, wfn = energy('ccsd(t)', return_wfn = True)
psi4.print_out('Giraffe The Energy is %.12f \n'%(e))
