# o-Benzyne preliminary computations

memory 14 gb

molecule {
  0 1
  C         -1.3709614458         -0.0245782668          0.0000040327  
  O          1.3022842790          0.1195252336          0.0000032846  
  H         -2.0720337023          1.9032054649         -0.0009190915  
  H         -2.1035370748         -0.9748979077          1.6768339193  
  H         -2.1034558819         -0.9764099784         -1.6760032088  
  H          1.9346331377         -1.5562005910         -0.0000117258  
  units bohr
}

set {
  basis=cc-pVTZ
  reference rhf
  e_convergence 10 
  d_convergence 10
  r_convergence 8
  maxiter 300
}

energy('ccsd(t)')
