# o-Benzyne preliminary computations

memory 14 gb

molecule {
  0 1
  units bohr
}

set {
  basis cc-pvqz
  reference rhf
  e_convergence 10 
  d_convergence 10
  r_convergence 8
  maxiter 300
}

energy('mp2')
