# o-Benzyne preliminary computations

memory 30 gb

molecule {
  0 1
  units bohr
}

set {
  basis cc-pvqz
  reference rhf
  e_convergence 10 
  d_convergence 10
  r_convergence 8
  maxiter 300
  geom_maxiter 300
  normal_modes_write true 
}

energy('ccsd(t)')
