# o-Benzyne preliminary computations

memory 14 gb

molecule {
  0 1
  units bohr
 C   -1.3750747982   -0.0242744684   -0.0015507093
 O    1.3060144383    0.1207011112   -0.0002120768
 H   -2.0778740221    1.9096134713   -0.0045174303
 H   -2.1093392054   -0.9836299495    1.6849736563
 H   -2.1086215995   -0.9750486968   -1.6788996714
 H    1.9411710269   -1.5774935878    0.0001978214
  no_reorient
  no_com
}

set {
  basis 6-31g*
  reference rhf
  e_convergence 10 
  d_convergence 10
  r_convergence 8
  maxiter 300
  dft_spherical_points 1202
  dft_radial_points 99
  freeze_core True
}


#gradient('ccsd(t)')
gradient('b3lyp')
