# o-Benzyne preliminary computations

memory 14 gb

molecule {
  0 1
  C         -1.3689214330         -0.0246927790          0.0000045982  
  O          1.3021188744          0.1205021624          0.0000033868  
  H         -2.0830062221          1.8982681978         -0.0009227725  
  H         -2.1122912835         -0.9712116909          1.6746093463  
  H         -2.1122151741         -0.9727155656         -1.6737835134  
  H          1.9414541660         -1.5727850458         -0.0000115234  
  units bohr
}

set {
  basis=cc-pVTZ
  reference rhf
  e_convergence 10 
  d_convergence 10
  r_convergence 8
  maxiter 300
}

energy('ccsd(t)')
