# o-Benzyne preliminary computations

memory 14 gb

molecule {
  0 1
  C   -1.3645240461   -0.0249326537    0.0000059087
  O    1.3065568481    0.1195101096    0.0000045642
  H   -2.0780672624    1.8982291920   -0.0009211612
  H   -2.1081602590   -0.9712423541    1.6746104586
  H   -2.1080847611   -0.9727458039   -1.6737821555
  H    1.9454152405   -1.5739569498   -0.0000106048
  units bohr
}

set {
  basis=cc-pVTZ
  reference rhf
  e_convergence 10 
  d_convergence 10
  r_convergence 8
  maxiter 300
}

energy('ccsd(t)')
