# o-Benzyne preliminary computations

memory 14 gb

molecule {
  0 1
  H    0.0000000000   -1.4213213055    0.9907996375
  O    0.0000000000   -0.0046976571   -0.1250849980
  H    0.0000000000    1.4260189626    0.9944878305
  units bohr
}

set {
  basis=cc-pVTZ
  reference rhf
  e_convergence 10 
  d_convergence 10
  r_convergence 8
  maxiter 300
}

energy('ccsd(t)')
