# o-Benzyne preliminary computations

memory 14 gb

molecule {
  0 1
  units bohr
 C   -1.3777245381   -0.0250947755   -0.0000064016
 O    1.3063309321    0.1209683296    0.0000025559
 H   -2.0770458672    1.9098930026   -0.0000776256
 H   -2.1082216232   -0.9791239701    1.6822098672
 H   -2.1082151232   -0.9792569711   -1.6821350173
 H    1.9411520596   -1.5775177354   -0.0000017887
  no_reorient
  no_com
}

set {
  basis 6-31g*
  reference rhf
  e_convergence 10 
  d_convergence 10
  r_convergence 8
  maxiter 300
  dft_spherical_points 1202
  dft_radial_points 99
  freeze_core True
}


#gradient('ccsd(t)')
gradient('b3lyp')
