# o-Benzyne preliminary computations

memory 14 gb

molecule {
  0 1
  units bohr
 C   -1.3750701387   -0.0242787732   -0.0008234138
 O    1.3060182234    0.1207001624    0.0015468059
 H   -2.0778769575    1.9096089335   -0.0010055774
 H   -2.1023284342   -0.9805721464    1.6798727630
 H   -2.1156415492   -0.9780980472   -1.6839816304
 H    1.9411746963   -1.5774922492    0.0043826427
  no_reorient
  no_com
}

set {
  basis 6-31g*
  reference rhf
  e_convergence 10 
  d_convergence 10
  r_convergence 8
  maxiter 300
  dft_spherical_points 1202
  dft_radial_points 99
  freeze_core True
}


#gradient('ccsd(t)')
gradient('b3lyp')
