# o-Benzyne preliminary computations

memory 14 gb

molecule {
  0 1
  H    0.0000000000   -1.4262273014    0.9914008786
  O    0.0000000000    0.0000000000   -0.1225992872
  H    0.0000000000    1.4262273014    0.9914008786
  units bohr
}

set {
  basis=cc-pVTZ
  reference rhf
  e_convergence 10 
  d_convergence 10
  r_convergence 8
  maxiter 300
}

energy('ccsd(t)')
