# o-Benzyne preliminary computations

memory 14 gb

molecule {
  0 1
  C   -1.3709366287   -0.0245378255   -0.0048828925
  O    1.3018486986    0.1205525783   -0.0020271083
  H   -2.0719940136    1.9029346599   -0.0052328320
  H   -2.1083452739   -0.9804070409    1.6831734091
  H   -2.0985400539   -0.9709111691   -1.6697091809
  H    1.9411030314   -1.5727696627   -0.0014143855
  units bohr
}

set {
  basis=cc-pVTZ
  reference rhf
  e_convergence 10 
  d_convergence 10
  r_convergence 8
  maxiter 300
}

energy('ccsd(t)')
