# o-Benzyne preliminary computations

memory 14 gb

molecule {
  0 1
  C         -1.3709376462         -0.0245345800         -0.0016149246  
  O          1.3018490244          0.1205536851          0.0000085058  
  H         -2.0719938040          1.9029385147         -0.0013108163  
  H         -2.1075531896         -0.9806874991          1.6866271395  
  H         -2.0993245290         -0.9706273199         -1.6662582908  
  H          1.9411024310         -1.5727691513          0.0000356432  
  units bohr
}

set {
  basis=cc-pVTZ
  reference rhf
  e_convergence 10 
  d_convergence 10
  r_convergence 8
  maxiter 300
}

energy('ccsd(t)')
