# o-Benzyne preliminary computations

memory 14 gb

molecule {
  0 1
  C   -1.3709365084   -0.0245335223    0.0048909543
  O    1.3018488561    0.1205542031    0.0020337089
  H   -2.0719942296    1.9029393358    0.0033949142
  H   -2.0986209470   -0.9694050698    1.6705356757
  H   -2.1082638279   -0.9819254249   -1.6823387488
  H    1.9411024169   -1.5727679818    0.0013905057
  units bohr
}

set {
  basis=cc-pVTZ
  reference rhf
  e_convergence 10 
  d_convergence 10
  r_convergence 8
  maxiter 300
}

energy('ccsd(t)')
