# o-Benzyne preliminary computations

memory 14 gb

molecule {
  0 1
  C         -1.3709376338         -0.0245331232          0.0016229876  
  O          1.3018490101          0.1205536534         -0.0000019055  
  H         -2.0719941181          1.9029397214         -0.0005271118  
  H         -2.0994054893         -0.9691242499          1.6670844815  
  H         -2.1074718186         -0.9822089221         -1.6857921980  
  H          1.9411024130         -1.5727688475         -0.0000595270  
  units bohr
}

set {
  basis=cc-pVTZ
  reference rhf
  e_convergence 10 
  d_convergence 10
  r_convergence 8
  maxiter 300
}

energy('ccsd(t)')
