# o-Benzyne preliminary computations

memory 14 gb

molecule {
  0 1
  units bohr
 C   -1.3747114734   -0.0266847004    0.0000006138
 O    1.3061959037    0.1197522015    0.0000006094
 H   -2.0809835053    1.9161319823   -0.0000808819
 H   -2.1079788350   -0.9803648300    1.6804772792
 H   -2.1079724816   -0.9804949725   -1.6804047769
 H    1.9417262317   -1.5784718009   -0.0000012537
}

set {
  basis cc-pvtz
  reference rhf
  e_convergence 10 
  d_convergence 10
  r_convergence 8
  maxiter 300
  freeze_core True
}

e, wfn = energy('ccsd(t)', return_wfn = True)
psi4.print_out('Giraffe The Energy is %.12f \n'%(e))
