# o-Benzyne preliminary computations

memory 30 gb

molecule {
  0 1
  H          0.0000000000         -1.4262274043          0.9893270513  
  O          0.0000000000          0.0000000000         -0.1246731936  
  H          0.0000000000          1.4262274043          0.9893270513  
  units bohr
}

set {
  basis=cc-pVTZ
  reference rhf
  e_convergence 10 
  d_convergence 10
  r_convergence 8
  maxiter 300
  geom_maxiter 300
  normal_modes_write true 
}

energy('ccsd(t)')
