# o-Benzyne preliminary computations

memory 14 gb

molecule {
  0 1
  units bohr
 C   -1.3763624860   -0.0216795959    0.0000001353
 O    1.3123243731    0.1215669397    0.0000005266
 H   -2.0838358178    1.9103427864   -0.0000794110
 H   -2.1062773762   -0.9796745060    1.6816697733
 H   -2.1062690077   -0.9798068480   -1.6815975796
 H    1.9366961547   -1.5808808962   -0.0000018546
}

set {
  basis cc-pvtz
  reference rhf
  e_convergence 10 
  d_convergence 10
  r_convergence 8
  maxiter 300
  freeze_core True
}

e, wfn = energy('ccsd(t)', return_wfn = True)
psi4.print_out('Giraffe The Energy is %.12f \n'%(e))
