# o-Benzyne preliminary computations

memory 14 gb

molecule {
  0 1
  C   -1.3716540623   -0.0265515017    0.0000041252
  O    1.3002576484    0.1200757720    0.0000035598
  H   -2.0683729729    1.9025341581   -0.0009184808
  H   -2.1065740424   -0.9744715117    1.6772129024
  H   -2.1064958244   -0.9759848773   -1.6763826738
  H    1.9459750137   -1.5707404994   -0.0000124228
  units bohr
}

set {
  basis=cc-pVTZ
  reference rhf
  e_convergence 10 
  d_convergence 10
  r_convergence 8
  maxiter 300
}

energy('ccsd(t)')
