# o-Benzyne preliminary computations

memory 14 gb

molecule {
  0 1
  units bohr
 C   -1.3748525750   -0.0257921638    0.0000003288
 O    1.3049789101    0.1203305944    0.0000003401
 H   -2.0783178941    1.9156475409   -0.0000801636
 H   -2.1084094290   -0.9813366304    1.6780911434
 H   -2.1084024356   -0.9814675218   -1.6780187481
 H    1.9412792636   -1.5775139393   -0.0000013106
  no_reorient
  no_com
}

set {
  basis 6-31g*
  reference rhf
  e_convergence 10 
  d_convergence 10
  r_convergence 8
  maxiter 300
  dft_spherical_points 1202
  dft_radial_points 99
  freeze_core True
}


#gradient('ccsd(t)')
gradient('b3lyp')
