# o-Benzyne preliminary computations

memory 14 gb

molecule {
  0 1
  C   -1.3671324426   -0.0233977643    0.0000057269
  O    1.2962455556    0.1202950928    0.0000021271
  H   -2.0723287767    1.9025960091   -0.0009196172
  H   -2.0995782773   -0.9751712280    1.6763540632
  H   -2.0994900673   -0.9766825043   -1.6755220023
  H    1.9354197683   -1.5727780655   -0.0000132878
  units bohr
}

set {
  basis=cc-pVTZ
  reference rhf
  e_convergence 10 
  d_convergence 10
  r_convergence 8
  maxiter 300
}

energy('ccsd(t)')
