# o-Benzyne preliminary computations

memory 14 gb

molecule {
  0 1
  units bohr
 C   -1.3750731100   -0.0242768600    0.0000003500
 O    1.3060163600    0.1207012800    0.0000003000
 H   -2.0778739500    1.9096129200   -0.0000799100
 H   -2.1089875800   -0.9792726900    1.6819738900
 H   -2.1089805500   -0.9794039300   -1.6819017300
 H    1.9411746700   -1.5774928400   -0.0000013100
}

set {
  basis cc-pvtz
  reference rhf
  e_convergence 10 
  d_convergence 10
  r_convergence 8
  maxiter 300
  freeze_core True
}

e, wfn = energy('ccsd(t)', return_wfn = True)
psi4.print_out('Giraffe The Energy is %.12f \n'%(e))
