# o-Benzyne preliminary computations

memory 14 gb

molecule {
  0 1
  C   -1.3702054281   -0.0264056996    0.0000042718
  O    1.3024234213    0.1227821253    0.0000034615
  H   -2.0704436461    1.9013626510   -0.0009180721
  H   -2.1030127681   -0.9745303834    1.6780032297
  H   -2.1029318261   -0.9760444924   -1.6771736288
  H    1.9373060071   -1.5723026608   -0.0000122520
  units bohr
}

set {
  basis=cc-pVTZ
  reference rhf
  e_convergence 10 
  d_convergence 10
  r_convergence 8
  maxiter 300
}

energy('ccsd(t)')
