# o-Benzyne preliminary computations

memory 14 gb

molecule {
  0 1
  C   -1.3726380913   -0.0272448488    0.0000038267
  O    1.3005641771    0.1170084553    0.0000031630
  H   -2.0788451510    1.8987347616   -0.0009119754
  H   -2.0993753150   -0.9684940608    1.6840582599
  H   -2.0992880847   -0.9700190648   -1.6832344484
  H    1.9427182248   -1.5751237024   -0.0000118158
  units bohr
}

set {
  basis=cc-pVTZ
  reference rhf
  e_convergence 10 
  d_convergence 10
  r_convergence 8
  maxiter 300
}

energy('ccsd(t)')
