# o-Benzyne preliminary computations

memory 14 gb

molecule {
  0 1
  C   -1.3702187096   -0.0225158171    0.0000039317
  O    1.3034429371    0.1210247813    0.0000030369
  H   -2.0756025187    1.9033374493   -0.0009194323
  H   -2.1003942729   -0.9753464498    1.6764828090
  H   -2.1003101483   -0.9768575601   -1.6756518775
  H    1.9362184724   -1.5747808636   -0.0000114578
  units bohr
}

set {
  basis=cc-pVTZ
  reference rhf
  e_convergence 10 
  d_convergence 10
  r_convergence 8
  maxiter 300
}

energy('ccsd(t)')
