# o-Benzyne preliminary computations

memory 14 gb

molecule {
  0 1
  C         -1.3712037180         -0.0238657162          0.0000040177  
  O          1.3024122479          0.1205268451          0.0000032664  
  H         -2.0772012029          1.9017628232         -0.0009193111  
  H         -2.1010757624         -0.9769291016          1.6764829347  
  H         -2.1009909863         -0.9784400537         -1.6756519980  
  H          1.9357281637         -1.5750771985         -0.0000112654  
  units bohr
}

set {
  basis=cc-pVTZ
  reference rhf
  e_convergence 10 
  d_convergence 10
  r_convergence 8
  maxiter 300
}

energy('ccsd(t)')
