# o-Benzyne preliminary computations

memory 14 gb

molecule {
  0 1
  C   -1.3716639874   -0.0226626947    0.0000037881
  O    1.3012748438    0.1183232744    0.0000031367
  H   -2.0735357445    1.9045159436   -0.0009198432
  H   -2.1039569927   -0.9752892528    1.6756932216
  H   -2.1038755902   -0.9767996246   -1.6748616626
  H    1.9448932310   -1.5732261059   -0.0000116305
  units bohr
}

set {
  basis=cc-pVTZ
  reference rhf
  e_convergence 10 
  d_convergence 10
  r_convergence 8
  maxiter 300
}

energy('ccsd(t)')
