# o-Benzyne preliminary computations

memory 14 gb

molecule {
  0 1
  C         -1.3711242459         -0.0235564086          0.0000039584  
  O          1.3016803914          0.1199547404          0.0000032887  
  H         -2.0748164130          1.9029584239         -0.0009196455  
  H         -2.1025169777         -0.9768744564          1.6756934991  
  H         -2.1024341764         -0.9783847054         -1.6748616312  
  H          1.9468966125         -1.5709859504         -0.0000115095  
  units bohr
}

set {
  basis=cc-pVTZ
  reference rhf
  e_convergence 10 
  d_convergence 10
  r_convergence 8
  maxiter 300
}

energy('ccsd(t)')
