# o-Benzyne preliminary computations

memory 14 gb

molecule {
  0 1
  units bohr
 C   -1.3782010842   -0.0279928754    0.0000010056
 O    1.3065782601    0.1203105525    0.0000012015
 H   -2.0719103785    1.9091541271   -0.0000811984
 H   -2.1157689412   -0.9785772746    1.6827135554
 H   -2.1157627355   -0.9787075459   -1.6826408967
 H    1.9513407194   -1.5743191037   -0.0000020775
}

set {
  basis cc-pvtz
  reference rhf
  e_convergence 10 
  d_convergence 10
  r_convergence 8
  maxiter 300
  freeze_core True
}

e, wfn = energy('ccsd(t)', return_wfn = True)
psi4.print_out('Giraffe The Energy is %.12f \n'%(e))
