# o-Benzyne preliminary computations

memory 14 gb

molecule {
  0 1
  units bohr
 C   -1.3750748088   -0.0242744115    0.0015514088
 O    1.3060145047    0.1207011403    0.0002126769
 H   -2.0778740816    1.9096140574    0.0043576104
 H   -2.1086286251   -0.9749177792    1.6789713044
 H   -2.1093321713   -0.9837615118   -1.6849009694
 H    1.9411710222   -1.5774936152   -0.0002004411
  no_reorient
  no_com
}

set {
  basis 6-31g*
  reference rhf
  e_convergence 10 
  d_convergence 10
  r_convergence 8
  maxiter 300
  dft_spherical_points 1202
  dft_radial_points 99
  freeze_core True
}


#gradient('ccsd(t)')
gradient('b3lyp')
