# o-Benzyne preliminary computations

memory 14 gb

molecule {
  0 1
  units bohr
 C   -1.3756252737   -0.0234175446    0.0000003584
 O    1.3080885109    0.1201545044    0.0000003569
 H   -2.0861104928    1.9113742741   -0.0000799345
 H   -2.1063915566   -0.9776217065    1.6829384706
 H   -2.1063842592   -0.9777530126   -1.6828664011
 H    1.9426989113   -1.5828686348   -0.0000012603
  no_reorient
  no_com
}

set {
  basis 6-31g*
  reference rhf
  e_convergence 10 
  d_convergence 10
  r_convergence 8
  maxiter 300
  dft_spherical_points 1202
  dft_radial_points 99
  freeze_core True
}


#gradient('ccsd(t)')
gradient('b3lyp')
