# o-Benzyne preliminary computations

memory 14 gb

molecule {
  0 1
  units bohr
 C   -1.3750292100   -0.0232096195    0.0000004538
 O    1.3042828609    0.1253142039    0.0000002389
 H   -2.0765235580    1.9092864009   -0.0000799492
 H   -2.1093121957   -0.9800877238    1.6818536952
 H   -2.1093051188   -0.9802189285   -1.6817815191
 H    1.9421630617   -1.5812164529   -0.0000013295
  no_reorient
  no_com
}

set {
  basis 6-31g*
  reference rhf
  e_convergence 10 
  d_convergence 10
  r_convergence 8
  maxiter 300
  dft_spherical_points 1202
  dft_radial_points 99
  freeze_core True
}


#gradient('ccsd(t)')
gradient('b3lyp')
